
  32    4
  10   10   10   10

   0   0   0   0   0   3 2 8 31 
   8   1   1   0   1   2 30 3 
   7   0   4   1   3   2 28 4 
   7   8   0   5   3   1 5 
   6   6   0   1   3   3 27 26 6 
   5   5   0   5   3   2 24 7 
  10   4   0   4   5   3 25 23 9 
   7   4   6   0   4   6 29 26 24 23 22 13 
   4   2   5   0   6   1 10 
   9   7   4   4   0   2 22 11 
   5   0   2   2   2   1 12 
   1   6   3   4   0   1 13 
   8   3   0   5   5   2 21 14 
   2   5   9   2   0   4 20 19 18 15 
   3   3   0   3   4   1 16 
   6   5   0   6   4   1 17 
   6   2   4   0   3   1 32
   6   4   6   0   5   1 32
   7   0   5   4   2   1 32
   8   3   5   0   3   1 32
   5   4   0   6   2   1 32
   5   0   4   2   4   1 32
   6   3   0   5   6   1 32
   6   5   6   5   0   1 32
   4   3   2   0   4   1 32
   4   0   3   5   5   1 32
   2   2   3   0   6   1 32
   4   2   1   6   0   1 32
   2   0   3   3   7   1 32
   2   0   4   4   5   1 32
   7   5   0   6   5   1 32
   0   0   0   0   0   0 
